s td 339 8 377
b 1 3 25 123
b 2 40 303 370
b 3 81 88 189
b 4 102 141 348
b 5 134 146 225
b 6 134 171 225
b 7 125 158 319
b 8 162 173 312
b 9 176 242 356
b 10 188 327 350
b 11 58 88
b 12 213 324 354
b 13 43 47 221
b 14 171 207
b 15 231 241 305
b 16 18 245 365
b 17 74 256 304
b 18 95 227 290
b 19 258 295 299
b 20 107 258
b 21 47 241
b 22 43 47
b 23 43 175
b 24 141 321
b 25 118 327
b 26 4 178 359
b 27 54 308 377
b 28 54 200 308
b 29 200 321
b 30 3 123 303
b 31 4 89 178
b 32 89 119 178
b 33 5 10 74
b 34 16 183 255
b 35 18 115 365
b 36 58 265 304
b 37 74 265 304
b 38 10 74 265
b 39 15 85 357
b 40 89 119 211
b 41 95 227 270
b 42 31 107 169
b 43 60 66 109 211
b 44 116 127 340
b 45 119 211 255
b 46 131 330 347
b 47 135 330 347
b 48 135 347
b 49 135 314 330
b 50 135 175 314
b 51 13 162 312
b 52 13 106 312
b 53 13 106 115
b 54 106 115 259
b 55 115 259 365
b 56 68 259 365
b 57 57 68 259
b 58 57 294
b 59 294 314
b 60 8 31 169 236
b 61 8 31 202
b 62 31 202 234
b 63 207 255 351
b 64 145 159 217
b 65 215 227 270
b 66 240 242 324
b 67 10 151 286
b 68 123 303 370
b 69 174 229 311
b 70 125 251 319
b 71 123 321 367
b 72 150 242 356
b 73 98 150 242 324
b 74 150 242 324
b 75 150 324 354
b 76 6 345 360
b 77 123 288 370
b 78 14 84 180 333
b 79 17 90 313 374
b 80 48 49 96 323
b 81 50 93 249 278
b 82 93 184 249 278
b 83 59 93 184 278
b 84 59 184 320
b 85 183 320
b 86 183 255 270
b 87 52 248 297 342
b 88 71 248 297 342
b 89 60 66 211 273
b 90 66 211 228 273
b 91 70 157 298 354
b 92 24 157 298 354
b 93 24 252 298 354
b 94 150 252 354
b 95 135 150 252
b 96 205 277 347
b 97 205 254 277
b 98 230 254 277
b 99 79 154 181 351
b 100 1 34 91 122 165 209 274 293
b 101 34 91 96 122 209 226 243 274
b 102 34 96 122 209 226 243 254 307
b 103 33 34 122 190 254 288 307 335
b 104 33 34 104 122 190 288 307 335
b 105 33 104 130 190 307 335
b 106 30 104 130 190 307 335
b 107 2 30 104 130 307
b 108 2 30 42 130
b 109 2 30 104 307 322
b 110 2 30 125 322
b 111 2 120 125 322
b 112 2 104 306 307 322
b 113 104 285 306 322
b 114 30 87 130 190 335
b 115 34 104 122 210 288
b 116 33 180 185 190 254 288 331 335
b 117 168 180 185 190 254 288 331 341
b 118 143 161 168 180 254 288 331 341
b 119 82 126 143 161 180 254 288 341
b 120 82 117 126 143 161 180 254
b 121 12 82 117 126 143 180 254
b 122 12 117 126 143 180 224 254
b 123 12 117 126 143 224 254 289
b 124 12 117 126 172 224 254 289
b 125 12 126 172 224 254 289 300
b 126 172 224 254 289 300 336
b 127 22 224 254 289 300 336
b 128 22 224 254 289 292 336
b 129 22 56 224 254 289 292
b 130 22 56 254 289 292 343
b 131 22 56 254 292 343 353
b 132 7 56 254 343 353
b 133 7 56 142 343
b 134 7 343 353 369
b 135 22 111 292 343 353
b 136 44 56 289 292 343
b 137 22 78 289 292 336
b 138 22 78 309 336
b 139 12 126 172 300 352
b 140 12 126 284 300 352
b 141 12 117 140 172 289
b 142 12 82 117 126 261
b 143 55 82 126 161 288 341
b 144 55 63 82 126 288 341
b 145 21 63 288 341
b 146 55 63 82 126 267 288
b 147 55 63 126 164 267 288
b 148 55 136 164 267
b 149 55 63 164 182
b 150 63 126 164 195 267 288
b 151 63 164 195 288 338
b 152 195 288 338 346
b 153 55 73 161 341
b 154 84 143 161 168 180 331
b 155 61 84 161 168 180 331
b 156 61 84 161 168 208
b 157 61 84 133 208
b 158 61 84 180 331 333
b 159 62 168 185 190 331 341
b 160 62 160 168 190 341
b 161 62 160 190 194
b 162 62 160 168 276
b 163 33 76 180 185 190 254 331 335
b 164 33 76 99 180 185 254 331
b 165 19 76 99 180 185 254 331
b 166 19 99 180 185 244 254 331
b 167 19 180 185 244 326 331
b 168 19 185 296 326 331
b 169 185 219 296 326 331
b 170 23 185 219 296
b 171 36 219 296 326
b 172 180 244 326 355
b 173 222 244 326 355
b 174 41 222 244 326
b 175 67 222 326 355
b 176 222 244 355 372
b 177 19 99 101 244 254
b 178 19 99 101 138
b 179 99 101 156 254
b 180 19 76 129 185
b 181 76 185 190 335 337
b 182 76 121 335 337
b 183 33 76 335 368
b 184 96 198 209 226 243 254 307 373
b 185 28 96 198 243 254 307 357 373
b 186 15 28 96 198 254 307 357 373
b 187 15 28 96 238 254 307 357 373
b 188 15 28 48 96 238 254 307 373
b 189 15 48 96 238 254 264 307 373
b 190 15 48 233 238 254 264 307 373
b 191 15 35 233 238 254 264 307 373
b 192 15 26 35 233 238 254 373
b 193 15 26 35 238 254 272 373
b 194 26 35 254 272 345
b 195 6 26 35 147 272 345
b 196 6 26 35 147 206
b 197 6 35 103 147 206
b 198 6 35 103 159 206
b 199 35 103 159 206 275
b 200 35 45 103 159 275
b 201 35 45 159 275 374
b 202 35 45 250 275 374
b 203 45 51 250 275
b 204 35 250 313 374
b 205 35 90 313 374
b 206 45 197 250 374
b 207 45 159 257 374
b 208 45 103 159 275 376
b 209 103 206 275 366
b 210 6 103 145 159
b 211 6 103 147 149 206
b 212 6 97 147 272 345
b 213 97 272 344 345
b 214 35 191 254 271 279 345
b 215 132 191 253 271 279 345
b 216 132 203 253 271 279 345
b 217 10 132 203 279 345
b 218 10 132 151 203
b 219 10 203 265 279
b 220 203 235 253 271 279
b 221 167 235 271 279
b 222 132 191 193 253 345
b 223 191 193 253 262 345
b 224 193 262 282 345
b 225 191 193 253 262 349
b 226 35 191 220 254 271 279
b 227 35 220 254 279 334
b 228 35 64 220 254 334
b 229 35 64 254 280 334
b 230 35 64 254 280 371
b 231 38 64 280 371
b 232 35 230 254 280 371
b 233 230 280 351 371
b 234 153 280 351 371
b 235 35 170 230 371
b 236 64 72 280 334
b 237 64 220 310 334
b 238 35 191 220 269
b 239 220 271 279 325
b 240 15 26 53 238 272 373
b 241 15 26 53 148 272 373
b 242 26 53 113 148 272 373
b 243 53 113 144 148 272 373
b 244 71 113 144 148 272 373
b 245 71 113 144 260 272
b 246 37 71 144 260 272
b 247 11 37 71 260 272
b 248 77 113 144 260
b 249 71 144 148 342 373
b 250 53 113 144 148 155
b 251 29 144 148 155
b 252 15 53 148 199
b 253 35 233 254 264 302 307
b 254 233 264 302 315
b 255 48 96 264 307 323
b 256 28 32 238 357
b 257 15 69 198 373
b 258 9 198 243 357
b 259 28 96 196 243 357
b 260 80 198 209 226 373
b 261 80 124 209 226
b 262 91 96 122 209 226 243 263 274
b 263 75 91 96 122 209 226 243 263
b 264 75 91 96 122 163 243 263
b 265 75 86 91 122 163 243 263
b 266 86 91 105 122 163 263
b 267 83 86 91 105 122 163
b 268 39 83 91 105
b 269 83 86 105 163 328
b 270 86 105 212 263
b 271 75 209 263 358
b 272 91 192 209 263 274
b 273 91 192 239 263
b 274 91 192 247 274
b 275 1 34 165 209 274 293 340
b 276 1 34 165 291 293 340
b 277 1 34 127 165 291 340
b 278 1 127 237 291 340
b 279 20 127 237 291
b 280 34 46 127 165 291 301
b 281 46 127 165 177 291 301
b 282 46 127 177 301 318
b 283 127 177 229 301 318
b 284 65 127 177 229 318
b 285 229 283 301 318
b 286 34 46 165 301 363
b 287 46 92 165 363
b 288 46 137 301 363
b 289 1 27 291 293
b 290 110 209 274 340
b 291 1 91 122 165 274 293 316
b 292 1 152 274 293 316
b 293 1 114 152 293
b 294 122 165 187 316
b 295 94 120 125 251
b 296 120 125 251 322
b 297 35 100 220 269
b 298 108 126 195 267
b 299 112 179 322 332
b 300 118 195 338 346
b 301 11 128 260 268
b 302 11 260 268 272
b 303 139 191 262 349
b 304 153 154 181 351
b 305 153 181 351 371
b 306 166 193 262 282
b 307 174 218 229 339
b 308 179 285 322 332
b 309 104 285 322 332
b 310 186 233 264 315
b 311 201 216 362 375
b 312 202 204 234 300
b 313 204 234 300 336
b 314 211 228 255 273
b 315 228 255 273 351
b 316 215 255 273 351
b 317 215 255 270 351
b 318 255 270 351
b 319 230 270 351
b 320 30 87 190 214
b 321 61 168 208 223
b 322 22 111 232 353
b 323 22 234 300 336
b 324 71 248 342 373
b 325 222 281 355 372
b 326 266 287 329 339
b 327 266 329 339 364
b 328 218 266 339 364
b 329 218 229 339 364
b 330 218 229 318 364
b 331 229 283 318 364
b 332 83 163 317 328
b 333 284 300 352 361
b 334 123 216 362 375
b 335 123 216 367 375
b 336 123 216 246 367
b 337 123 216 246 288
b 338 210 216 246 288
b 339 34 210 246 288
1 30
2 68
3 11
4 24
5 6
6 14
7 70
8 51
9 72
10 25
11 36
12 75
13 22
14 63
15 21
16 35
17 37
18 41
19 20
20 42
21 22
22 23
23 50
24 71
25 300
26 31
27 28
28 29
29 71
30 68
31 32
32 40
33 38
34 86
35 55
36 37
37 38
38 219
39 186
40 45
41 65
42 60
43 89
44 277
45 314
46 96
46 47
47 95
47 49
47 48
49 59
49 50
51 52
52 53
53 54
54 55
55 56
56 57
57 58
58 59
60 61
61 62
62 312
63 318
64 210
65 317
66 74
67 218
68 77
69 307
70 296
71 336
72 74
73 74
74 75
75 94
76 195
77 337
78 158
79 205
80 255
81 82
82 83
83 84
84 85
85 86
86 318
87 88
88 324
89 90
90 314
91 92
92 93
93 94
94 95
96 97
97 98
98 232
99 304
100 101
100 275
100 291
101 102
101 262
102 103
102 184
103 104
103 116
104 105
104 115
105 106
106 107
106 114
107 108
107 109
109 110
109 112
110 111
111 296
112 113
113 309
114 320
115 339
116 117
116 163
117 118
117 159
118 119
118 154
119 120
119 143
120 121
121 122
121 142
122 123
123 124
124 125
124 141
125 126
125 139
126 127
127 323
127 128
128 129
128 137
129 130
130 131
130 136
131 132
131 135
132 133
132 134
135 322
137 138
139 140
140 333
143 144
143 153
144 145
144 146
146 147
147 148
147 149
147 150
150 298
150 151
151 152
152 300
154 155
155 156
155 158
156 321
156 157
159 160
160 161
160 162
163 164
163 181
163 183
164 165
165 166
165 180
166 167
166 177
167 168
167 172
168 169
169 170
169 171
172 173
173 174
173 175
173 176
176 325
177 178
177 179
181 182
184 185
184 260
185 186
185 258
185 259
186 187
186 257
187 188
187 256
188 189
189 190
189 255
190 191
191 192
191 253
192 193
193 194
193 240
194 195
194 214
195 196
195 212
196 197
197 198
197 211
198 199
198 210
199 200
199 209
200 201
200 208
201 202
201 207
202 203
202 204
202 206
204 205
212 213
214 215
214 226
215 216
215 222
216 217
216 220
217 218
217 219
220 221
222 223
223 224
223 225
224 306
225 303
226 227
226 238
226 239
227 228
228 229
228 237
229 230
229 236
230 231
230 232
232 233
232 235
233 319
233 234
234 305
238 297
240 241
241 242
241 252
242 243
243 244
243 250
244 245
244 249
245 246
245 248
246 247
247 302
249 324
250 251
253 254
254 310
260 261
262 263
262 272
263 264
263 271
264 265
265 266
266 267
266 270
267 268
267 269
269 332
272 273
272 274
275 276
275 290
276 277
276 289
277 278
277 280
278 279
280 281
280 286
281 282
282 283
283 284
283 285
285 331
286 287
286 288
291 292
291 294
292 293
295 296
299 308
301 302
304 305
307 329
308 309
311 334
312 313
313 323
314 315
315 316
316 317
317 318
318 319
326 327
327 328
328 329
329 330
330 331
334 335
335 336
336 337
337 338
338 339
